\ This file has been generated by DOcplex
\ ENCODING=ISO-8859-1
\Problem name: Orandom17242_6.lp

Minimize
 obj: - 36.000001068935 x0 - 18.000000534467 x1 - 9.000000267234 x2
      - 32.000001068935 x3 - 16.000000534467 x4 - 8.000000267234 x5 + [
      16.000000610820 x0^2 + 16.000000610820 x0*x1 + 8.000000305410 x0*x2
      + 32.000001221640 x0*x3 + 16.000000610820 x0*x4 + 8.000000305410 x0*x5
      + 4.000000152705 x1^2 + 4.000000152705 x1*x2 + 16.000000610820 x1*x3
      + 8.000000305410 x1*x4 + 4.000000152705 x1*x5 + 1.000000038176 x2^2
      + 8.000000305410 x2*x3 + 4.000000152705 x2*x4 + 2.000000076352 x2*x5
      + 48.000000610820 x3^2 + 48.000000610820 x3*x4 + 24.000000305410 x3*x5
      + 12.000000152705 x4^2 + 12.000000152705 x4*x5 + 3.000000038176 x5^2 ]/2 +
      24.500000935318
Subject To

Bounds
 0 <= x0 <= 1
 0 <= x1 <= 1
 0 <= x2 <= 1
 0 <= x3 <= 1
 0 <= x4 <= 1
 0 <= x5 <= 1

Binaries
 x0 x1 x2 x3 x4 x5
End
